
******************************************************************************
This program contains Ipopt, a library for large-scale nonlinear optimization.
 Ipopt is released as open source code under the Eclipse Public License (EPL).
         For more information visit http://projects.coin-or.org/Ipopt
******************************************************************************

This is Ipopt version 3.12.6, running with linear solver ma57.

Number of nonzeros in equality constraint Jacobian...:   332928
Number of nonzeros in inequality constraint Jacobian.:        0
Number of nonzeros in Lagrangian Hessian.............:    70278

Total number of variables............................:     2652
                     variables with only lower bounds:        0
                variables with lower and upper bounds:        0
                     variables with only upper bounds:        0
Total number of equality constraints.................:     2652
Total number of inequality constraints...............:        0
        inequality constraints with only lower bounds:        0
   inequality constraints with lower and upper bounds:        0
        inequality constraints with only upper bounds:        0

iter    objective    inf_pr   inf_du lg(mu)  ||d||  lg(rg) alpha_du alpha_pr  ls
   0  0.0000000e+00 2.60e+01 0.00e+00  -1.0 0.00e+00    -  0.00e+00 0.00e+00   0
Reallocating memory for MA57: lfact (60590170)
   1  0.0000000e+00 1.32e+01 2.31e+09  -1.0 2.60e+01  -2.0 1.00e+00 1.00e+00h  1
   2  0.0000000e+00 1.19e+01 2.04e+09  -1.0 2.01e+00  -2.5 1.00e+00 1.25e-01h  4
   3  0.0000000e+00 1.06e+01 1.82e+09  -1.0 1.41e+00    -  1.00e+00 1.25e-01h  4
   4  0.0000000e+00 1.74e+01 2.26e+09  -1.0 9.72e-01    -  1.00e+00 1.00e+00H  1
   5  0.0000000e+00 1.53e+01 3.78e+09  -1.0 1.89e+01    -  1.00e+00 1.56e-02h  7
   6  0.0000000e+00 1.34e+01 5.43e+09  -1.0 6.50e+00    -  1.00e+00 6.25e-02h  5
   7  0.0000000e+00 1.15e+01 2.30e+10  -1.0 3.02e+00    -  1.00e+00 5.00e-01h  2
   8  0.0000000e+00 1.50e+01 4.46e+10  -1.0 6.96e-01    -  1.00e+00 1.00e+00h  1
   9  0.0000000e+00 5.20e+00 2.04e+10  -1.0 3.72e-01    -  1.00e+00 1.00e+00h  1
iter    objective    inf_pr   inf_du lg(mu)  ||d||  lg(rg) alpha_du alpha_pr  ls
  10  0.0000000e+00 5.77e-01 4.73e+09  -1.0 2.62e-01    -  1.00e+00 1.00e+00h  1
  11  0.0000000e+00 2.32e-02 1.84e+08  -1.0 9.09e-02    -  1.00e+00 1.00e+00h  1
  12  0.0000000e+00 9.76e-05 7.26e+05  -1.0 5.20e-03  -3.0 1.00e+00 1.00e+00h  1
  13  0.0000000e+00 2.24e-08 6.45e+00  -1.0 6.79e-06  -3.4 1.00e+00 1.00e+00h  1
  14  0.0000000e+00 1.74e-11 9.62e-08  -1.0 1.90e-09    -  1.00e+00 1.00e+00h  1

Number of Iterations....: 14

                                   (scaled)                 (unscaled)
Objective...............:   0.0000000000000000e+00    0.0000000000000000e+00
Dual infeasibility......:   0.0000000000000000e+00    0.0000000000000000e+00
Constraint violation....:   1.7405888543464214e-11    1.7405888543464214e-11
Complementarity.........:   0.0000000000000000e+00    0.0000000000000000e+00
Overall NLP error.......:   1.7405888543464214e-11    1.7405888543464214e-11


Number of objective function evaluations             = 37
Number of objective gradient evaluations             = 15
Number of equality constraint evaluations            = 39
Number of inequality constraint evaluations          = 0
Number of equality constraint Jacobian evaluations   = 15
Number of inequality constraint Jacobian evaluations = 0
Number of Lagrangian Hessian evaluations             = 14
Total CPU secs in IPOPT (w/o function evaluations)   =    184.393
Total CPU secs in NLP function evaluations           =      0.447

EXIT: Optimal Solution Found.

************************ CUTEst statistics ************************


 Package used            :  IPOPT
 Problem                 :  EIGENC    
 # variables             =            2652
 # constraints           =            2652
 # objective functions   =        0.5300000E+02
 # objective gradients   =        0.1600000E+02
 # objective Hessians    =        0.1500000E+02
 # Hessian-vector prdct  =        0.0000000E+00
 # constraints functions =        0.5600000E+02
 # constraints gradients =        0.1700000E+02
 # constraints Hessians  =        0.1500000E+02
 Exit code               =               0
 Final f                 =   0.0000000E+00
 Set up time             =            0.92 seconds
 Solve time              =          224.18 seconds


******************************************************************

System Time =      88.2559967041 s.
